proyfinal/src/viki/013/experimentInOfficeAgust.take6.output/8fd569f2-6b84-4fdc-9d38-b8338ec47f17.als.out
Reading from standard input... Use '--help' for help.
============================[ Problem Statistics ]=============================
|                                                                             |
|  Number of variables:         87638                                         |
|  Number of clauses:          161767                                         |
|  Parse time:                   0.04 s                                       |
|                                                                             |
============================[ Search Statistics ]==============================
| Conflicts |          ORIGINAL         |          LEARNT          | Progress |
|           |    Vars  Clauses Literals |    Limit  Clauses Lit/Cl |          |
===============================================================================
|       100 |   61842   103403   257955 |    37914      100      8 | 29.435 % |
|       250 |   61777   103307   257722 |    41705      247      7 | 29.509 % |
|       475 |   61776   103307   257722 |    45876      471     22 | 29.510 % |
|       812 |   61776   103099   257240 |    50464      781     48 | 29.510 % |
|      1318 |   61692   102841   256620 |    55510     1278     77 | 29.606 % |
|      2077 |   61503   102013   254611 |    61061     1991     81 | 29.822 % |
|      3216 |   61503   102013   254611 |    67167     3130     80 | 29.822 % |
|      4924 |   61444   101779   254065 |    73884     4620     75 | 29.889 % |
|      7486 |   61444   101779   254065 |    81272     7182     73 | 29.889 % |
|     11330 |   50218    68501   172593 |    89400    10811     70 | 42.698 % |
===============================================================================
restarts              : 61
conflicts             : 13930          (8122 /sec)
decisions             : 44503          (0.00 % random) (25946 /sec)
propagations          : 17679916       (10307883 /sec)
conflict literals     : 880990         (50.89 % deleted)
Memory used           : 39.50 MB
CPU time              : 1.71518 s

UNSATISFIABLE
